 $CONTRL SCFTYP=MCSCF $END
 $SYSTEM MWORDS=800 $END
 $ORMAS NSPACE=2 MSTART(1)=4,5 MINE(1)=1,7 MAXE(1)=1,7 $END
 $MCSCF CISTEP=ORMAS FULLNR=.T. MAXIT=200 FCORE=.T.
 MOFRZ(1)=5,6,7,8,9,10 $END
 $DET NCORE=3 NACT=7 NELS=8 NSTATE=4 ITERMX=2000 WSTATE(1)=1,1 $END
 $GUESS GUESS=MOREAD NORB=46 NORDER=1 IORDER(1)=2,3,4,1 $END
 $DATA  
Carbon Monoxide - CASSCF                                                           
C1       0
C           6.0      0.0000000000      0.0000000000      0.0000000000
   N311    6
   L       1
     1              0.0438000000  1.00000000  1.00000000
   D       1
     1              0.6260000000  1.00000000
        
O           8.0      0.0000000000      0.0000000000      1.1280000000
   N311    6
   L       1
     1              0.0845000000  1.00000000  1.00000000
   D       1
     1              1.2920000000  1.00000000
        
 $END      
--- OPTIMIZED MCSCF MO-S --- GENERATED AT Sun Mar 29 20:11:11 2020
Carbon Monoxide - CASSCF                                                           
E(MCSCF)=     -112.8929845768, E(NUC)=       22.5181808187
 $VEC   
 1  1-1.92337039E-04-4.00549260E-04 0.00000000E+00 0.00000000E+00 9.60143386E-04
 1  2 1.07234427E-03 0.00000000E+00 0.00000000E+00 1.47840740E-03-3.42641738E-04
 1  3 0.00000000E+00 0.00000000E+00 3.50453990E-04-2.31394909E-04 0.00000000E+00
 1  4 0.00000000E+00-7.58471068E-05-2.11432679E-04-2.11432679E-04 3.65990715E-04
 1  5 0.00000000E+00 0.00000000E+00 0.00000000E+00 5.51225682E-01 4.71152643E-01
 1  6 0.00000000E+00 0.00000000E+00-2.52349085E-03 7.11826873E-03 0.00000000E+00
 1  7 0.00000000E+00-1.08435503E-03-4.07367962E-04 0.00000000E+00 0.00000000E+00
 1  8-1.00831292E-03 1.77789959E-04 0.00000000E+00 0.00000000E+00 4.19484756E-05
 1  9-6.64988642E-04-6.64988642E-04-1.29030377E-04 0.00000000E+00 0.00000000E+00
 1 10 0.00000000E+00
 2  1 5.63297184E-01 4.66135200E-01 0.00000000E+00 0.00000000E+00 3.77922685E-03
 2  2 4.20326016E-03 0.00000000E+00 0.00000000E+00-6.04418153E-04 2.00560503E-03
 2  3 0.00000000E+00 0.00000000E+00 1.30931161E-03 4.94763443E-04 0.00000000E+00
 2  4 0.00000000E+00 2.81160989E-05-1.25516799E-03-1.25516799E-03-4.78157649E-04
 2  5 0.00000000E+00 0.00000000E+00 0.00000000E+00-4.96377691E-04-6.91035565E-04
 2  6 0.00000000E+00 0.00000000E+00-1.36370379E-03 1.69621458E-03 0.00000000E+00
 2  7 0.00000000E+00-2.77886175E-03 3.81526825E-04 0.00000000E+00 0.00000000E+00
 2  8-1.09665279E-03-2.10688335E-03 0.00000000E+00 0.00000000E+00 7.55495043E-04
 2  9-1.59026369E-04-1.59026369E-04 7.77924995E-04 0.00000000E+00 0.00000000E+00
 2 10 0.00000000E+00
 3  1-2.71858274E-02-4.29328483E-02 0.00000000E+00 0.00000000E+00-1.33603438E-02
 3  2 8.89681741E-02 0.00000000E+00 0.00000000E+00-3.56737737E-02 7.09750104E-02
 3  3 0.00000000E+00 0.00000000E+00-4.67411748E-02 3.50524506E-02 0.00000000E+00
 3  4 0.00000000E+00 1.46149451E-02-5.08724283E-03-5.08724283E-03 6.16979957E-03
 3  5 0.00000000E+00 0.00000000E+00 0.00000000E+00-1.14487769E-01-1.92145240E-01
 3  6 0.00000000E+00 0.00000000E+00 1.07019484E-01 5.54929606E-01 0.00000000E+00
 3  7 0.00000000E+00 1.58273114E-01 4.83467156E-01 0.00000000E+00 0.00000000E+00
 3  8 1.25850648E-01-2.54577399E-02 0.00000000E+00 0.00000000E+00 6.47950134E-03
 3  9-4.83262662E-04-4.83262662E-04 3.46569670E-04 0.00000000E+00 0.00000000E+00
 3 10 0.00000000E+00
 4  1-1.06170160E-01-1.78539673E-01 0.00000000E+00 0.00000000E+00-1.20384837E-01
 4  2 4.99558837E-01 0.00000000E+00 0.00000000E+00-1.76145794E-01 5.75387884E-01
 4  3 0.00000000E+00 0.00000000E+00-1.11198208E-01 4.06245384E-02 0.00000000E+00
 4  4 0.00000000E+00-6.12137749E-03 9.29573405E-03 9.29573405E-03-5.20356242E-03
 4  5 0.00000000E+00 0.00000000E+00 0.00000000E+00 2.68813810E-02 4.67789465E-02
 4  6 0.00000000E+00 0.00000000E+00-3.89642103E-02-1.47634780E-01 0.00000000E+00
 4  7 0.00000000E+00-5.81229764E-02-2.10638829E-01 0.00000000E+00 0.00000000E+00
 4  8-8.41155308E-03-3.92961091E-02 0.00000000E+00 0.00000000E+00 2.17114974E-02
 4  9-4.58972688E-04-4.58972688E-04 3.76928007E-03 0.00000000E+00 0.00000000E+00
 4 10 0.00000000E+00
 5  1 4.63178524E-02 7.25684545E-02 0.00000000E+00 0.00000000E+00-2.01331588E-01
 5  2-1.83280879E-01 0.00000000E+00 0.00000000E+00-2.69876690E-01 7.46508337E-02
 5  3 0.00000000E+00 0.00000000E+00-8.65914798E-02 1.26710990E-02 0.00000000E+00
 5  4 0.00000000E+00-4.53000603E-03 3.21452377E-02 3.21452377E-02-3.56503772E-02
 5  5 0.00000000E+00 0.00000000E+00 0.00000000E+00 3.99917355E-02 6.32889298E-02
 5  6 0.00000000E+00 0.00000000E+00 2.49001715E-01-1.65340498E-01 0.00000000E+00
 5  7 0.00000000E+00 3.70994091E-01 2.90877103E-02 0.00000000E+00 0.00000000E+00
 5  8 1.95182109E-01 6.80173004E-02 0.00000000E+00 0.00000000E+00-4.98401850E-03
 5  9 1.46864506E-02 1.46864506E-02-3.51876787E-02 0.00000000E+00 0.00000000E+00
 5 10 0.00000000E+00
 6  1 0.00000000E+00 0.00000000E+00 1.02657498E-03 1.34234598E-01 0.00000000E+00
 6  2 0.00000000E+00 1.70361232E-03 2.22763775E-01 0.00000000E+00 0.00000000E+00
 6  3 8.44804269E-04 1.10466962E-01 0.00000000E+00 0.00000000E+00 3.71002265E-05
 6  4 4.85036734E-03 0.00000000E+00 0.00000000E+00 0.00000000E+00 0.00000000E+00
 6  5 0.00000000E+00 4.45118403E-04 5.82034222E-02 0.00000000E+00 0.00000000E+00
 6  6 1.95908330E-03 2.56168342E-01 0.00000000E+00 0.00000000E+00 3.01237519E-03
 6  7 3.93897836E-01 0.00000000E+00 0.00000000E+00 2.28878299E-03 2.99277692E-01
 6  8 0.00000000E+00 0.00000000E+00 7.92794468E-05 1.03682880E-02 0.00000000E+00
 6  9 0.00000000E+00 0.00000000E+00 0.00000000E+00 0.00000000E+00-2.05495335E-04
 6 10-2.68704473E-02
 7  1 0.00000000E+00 0.00000000E+00 1.34234598E-01-1.02657498E-03 0.00000000E+00
 7  2 0.00000000E+00 2.22763775E-01-1.70361232E-03 0.00000000E+00 0.00000000E+00
 7  3 1.10466962E-01-8.44804269E-04 0.00000000E+00 0.00000000E+00 4.85036734E-03
 7  4-3.71002265E-05 0.00000000E+00 0.00000000E+00 0.00000000E+00 0.00000000E+00
 7  5 0.00000000E+00 5.82034222E-02-4.45118403E-04 0.00000000E+00 0.00000000E+00
 7  6 2.56168342E-01-1.95908330E-03 0.00000000E+00 0.00000000E+00 3.93897836E-01
 7  7-3.01237519E-03 0.00000000E+00 0.00000000E+00 2.99277692E-01-2.28878299E-03
 7  8 0.00000000E+00 0.00000000E+00 1.03682880E-02-7.92794468E-05 0.00000000E+00
 7  9 0.00000000E+00 0.00000000E+00 0.00000000E+00 0.00000000E+00-2.68704473E-02
 7 10 2.05495335E-04
 8  1 0.00000000E+00 0.00000000E+00-2.35913655E-03 2.65789848E-01 0.00000000E+00
 8  2 0.00000000E+00-4.10063546E-03 4.61994717E-01 0.00000000E+00 0.00000000E+00
 8  3-1.77604621E-03 2.00098015E-01 0.00000000E+00 0.00000000E+00 1.26925564E-04
 8  4-1.43036491E-02 0.00000000E+00 0.00000000E+00 0.00000000E+00 0.00000000E+00
 8  5 0.00000000E+00-9.18065181E-04 1.03434734E-01 0.00000000E+00 0.00000000E+00
 8  6 3.29783690E-03-3.71547430E-01 0.00000000E+00 0.00000000E+00 4.09128422E-03
 8  7-4.60939577E-01 0.00000000E+00 0.00000000E+00-6.07147050E-04 6.83962332E-02
 8  8 0.00000000E+00 0.00000000E+00-3.91699513E-04 4.41383481E-02 0.00000000E+00
 8  9 0.00000000E+00 0.00000000E+00 0.00000000E+00 0.00000000E+00 6.12845303E-05
 8 10-6.90445723E-03
 9  1 0.00000000E+00 0.00000000E+00 2.65789848E-01 2.35913655E-03 0.00000000E+00
 9  2 0.00000000E+00 4.61994717E-01 4.10063546E-03 0.00000000E+00 0.00000000E+00
 9  3 2.00098015E-01 1.77604621E-03 0.00000000E+00 0.00000000E+00-1.43036491E-02
 9  4-1.26925564E-04 0.00000000E+00 0.00000000E+00 0.00000000E+00 0.00000000E+00
 9  5 0.00000000E+00 1.03434734E-01 9.18065181E-04 0.00000000E+00 0.00000000E+00
 9  6-3.71547430E-01-3.29783690E-03 0.00000000E+00 0.00000000E+00-4.60939577E-01
 9  7-4.09128422E-03 0.00000000E+00 0.00000000E+00 6.83962332E-02 6.07147050E-04
 9  8 0.00000000E+00 0.00000000E+00 4.41383481E-02 3.91699513E-04 0.00000000E+00
 9  9 0.00000000E+00 0.00000000E+00 0.00000000E+00 0.00000000E+00-6.90445723E-03
 9 10-6.12845303E-05
10  1-7.31917393E-02-1.43353083E-01 0.00000000E+00 0.00000000E+00 3.78392295E-01
10  2 6.89938989E-01 0.00000000E+00 0.00000000E+00 6.78316136E-01 2.30600248E-01
10  3 0.00000000E+00 0.00000000E+00 1.75258845E-01-1.28124911E-02 0.00000000E+00
10  4 0.00000000E+00 1.46206795E-03-5.45122806E-02-5.45122806E-02 1.27497377E-01
10  5 0.00000000E+00 0.00000000E+00 0.00000000E+00 6.55973394E-02 1.25141033E-01
10  6 0.00000000E+00 0.00000000E+00 4.45474997E-01-6.58951282E-01 0.00000000E+00
10  7 0.00000000E+00 5.74528334E-01-3.53719391E-01 0.00000000E+00 0.00000000E+00
10  8 3.39245610E-02-1.23308799E-01 0.00000000E+00 0.00000000E+00 1.73063402E-02
10  9 2.68717102E-02 2.68717102E-02 1.32591105E-02 0.00000000E+00 0.00000000E+00
10 10 0.00000000E+00
11  1-1.37497146E-02-2.15943374E-02 0.00000000E+00 0.00000000E+00-4.11494416E-02
11  2 1.27615537E-01 0.00000000E+00 0.00000000E+00-1.24563236E-02-7.05358561E-01
11  3 0.00000000E+00 0.00000000E+00-5.07062539E-01-2.68410395E+00 0.00000000E+00
11  4 0.00000000E+00-1.02906477E+00 1.26885660E-02 1.26885660E-02 1.87512616E-02
11  5 0.00000000E+00 0.00000000E+00 0.00000000E+00-1.36335414E-02-2.19826890E-02
11  6 0.00000000E+00 0.00000000E+00 2.09748953E-02 9.74856903E-02 0.00000000E+00
11  7 0.00000000E+00 4.54524506E-02 5.64981520E-03 0.00000000E+00 0.00000000E+00
11  8-2.84044900E-02 2.85334055E+00 0.00000000E+00 0.00000000E+00-6.68826516E-01
11  9 8.39069190E-03 8.39069190E-03 2.88759177E-03 0.00000000E+00 0.00000000E+00
11 10 0.00000000E+00
12  1 0.00000000E+00 0.00000000E+00 5.92778553E-04-6.24219770E-02 0.00000000E+00
12  2 0.00000000E+00 4.85301855E-04-5.11042167E-02 0.00000000E+00 0.00000000E+00
12  3 3.63352353E-03-3.82624939E-01 0.00000000E+00 0.00000000E+00-1.34686455E-02
12  4 1.41830595E+00 0.00000000E+00 0.00000000E+00 0.00000000E+00 0.00000000E+00
12  5 0.00000000E+00 2.03749228E-04-2.14557148E-02 0.00000000E+00 0.00000000E+00
12  6 1.69784771E-05-1.78795738E-03 0.00000000E+00 0.00000000E+00 1.77598694E-04
12  7-1.87020646E-02 0.00000000E+00 0.00000000E+00-8.81173558E-04 9.27917164E-02
12  8 0.00000000E+00 0.00000000E+00 3.61238365E-03-3.80400831E-01 0.00000000E+00
12  9 0.00000000E+00 0.00000000E+00 0.00000000E+00 0.00000000E+00-6.59319214E-05
12 10 6.94289878E-03
13  1 0.00000000E+00 0.00000000E+00-6.24219770E-02-5.92778553E-04 0.00000000E+00
13  2 0.00000000E+00-5.11042167E-02-4.85301855E-04 0.00000000E+00 0.00000000E+00
13  3-3.82624939E-01-3.63352353E-03 0.00000000E+00 0.00000000E+00 1.41830595E+00
13  4 1.34686455E-02 0.00000000E+00 0.00000000E+00 0.00000000E+00 0.00000000E+00
13  5 0.00000000E+00-2.14557148E-02-2.03749228E-04 0.00000000E+00 0.00000000E+00
13  6-1.78795738E-03-1.69784771E-05 0.00000000E+00 0.00000000E+00-1.87020646E-02
13  7-1.77598694E-04 0.00000000E+00 0.00000000E+00 9.27917164E-02 8.81173558E-04
13  8 0.00000000E+00 0.00000000E+00-3.80400831E-01-3.61238365E-03 0.00000000E+00
13  9 0.00000000E+00 0.00000000E+00 0.00000000E+00 0.00000000E+00 6.94289878E-03
13 10 6.59319214E-05
14  1-1.71020973E-02-3.31276343E-02 0.00000000E+00 0.00000000E+00-5.72441034E-02
14  2 5.18378280E-02 0.00000000E+00 0.00000000E+00-4.97274450E-02 6.26610825E-02
14  3 0.00000000E+00 0.00000000E+00-5.50423951E-01-5.88346301E-01 0.00000000E+00
14  4 0.00000000E+00 1.29580240E+00-6.30579583E-03-6.30579583E-03-3.67438530E-02
14  5 0.00000000E+00 0.00000000E+00 0.00000000E+00 5.33567953E-03 7.86392035E-03
14  6 0.00000000E+00 0.00000000E+00-1.03509632E-02-4.17760175E-02 0.00000000E+00
14  7 0.00000000E+00-2.25232695E-02 2.38694601E-01 0.00000000E+00 0.00000000E+00
14  8-7.72737593E-02-1.66699410E-02 0.00000000E+00 0.00000000E+00-3.19372533E-01
14  9-4.91187808E-03-4.91187808E-03-5.20825908E-03 0.00000000E+00 0.00000000E+00
14 10 0.00000000E+00
15  1-2.27254470E-02-5.32661675E-02 0.00000000E+00 0.00000000E+00 2.46891743E-02
15  2-5.05552095E-02 0.00000000E+00 0.00000000E+00 1.23911060E-02 2.64151685E+00
15  3 0.00000000E+00 0.00000000E+00 4.11492659E-01 1.80267812E-01 0.00000000E+00
15  4 0.00000000E+00-6.52803169E-01-7.00203008E-02-7.00203008E-02-4.93827482E-02
15  5 0.00000000E+00 0.00000000E+00 0.00000000E+00 9.86612851E-03 1.99556145E-02
15  6 0.00000000E+00 0.00000000E+00-2.66974270E-02-4.22230257E-02 0.00000000E+00
15  7 0.00000000E+00-7.02778938E-03-4.47647214E-01 0.00000000E+00 0.00000000E+00
15  8-1.67224678E-01-1.47380676E+00 0.00000000E+00 0.00000000E+00 2.44234392E+00
15  9-1.79586836E-03-1.79586836E-03 3.43949140E-02 0.00000000E+00 0.00000000E+00
15 10 0.00000000E+00
16  1 0.00000000E+00 0.00000000E+00-5.66005523E-02-3.13110285E-02 0.00000000E+00
16  2 0.00000000E+00-1.02143513E-02-5.65051298E-03 0.00000000E+00 0.00000000E+00
16  3-4.88470079E-01-2.70218207E-01 0.00000000E+00 0.00000000E+00-7.54800412E-01
16  4-4.17550205E-01 0.00000000E+00 0.00000000E+00 0.00000000E+00 0.00000000E+00
16  5 0.00000000E+00 4.22236971E-03 2.33578464E-03 0.00000000E+00 0.00000000E+00
16  6-5.01500383E-02-2.77426409E-02 0.00000000E+00 0.00000000E+00-2.80557939E-02
16  7-1.55202618E-02 0.00000000E+00 0.00000000E+00-3.35066552E-01-1.85356415E-01
16  8 0.00000000E+00 0.00000000E+00 1.72817898E+00 9.56016323E-01 0.00000000E+00
16  9 0.00000000E+00 0.00000000E+00 0.00000000E+00 0.00000000E+00 1.55670633E-02
16 10 8.61158919E-03
17  1 0.00000000E+00 0.00000000E+00 3.13110285E-02-5.66005523E-02 0.00000000E+00
17  2 0.00000000E+00 5.65051298E-03-1.02143513E-02 0.00000000E+00 0.00000000E+00
17  3 2.70218207E-01-4.88470079E-01 0.00000000E+00 0.00000000E+00 4.17550205E-01
17  4-7.54800412E-01 0.00000000E+00 0.00000000E+00 0.00000000E+00 0.00000000E+00
17  5 0.00000000E+00-2.33578464E-03 4.22236971E-03 0.00000000E+00 0.00000000E+00
17  6 2.77426409E-02-5.01500383E-02 0.00000000E+00 0.00000000E+00 1.55202618E-02
17  7-2.80557939E-02 0.00000000E+00 0.00000000E+00 1.85356415E-01-3.35066552E-01
17  8 0.00000000E+00 0.00000000E+00-9.56016323E-01 1.72817898E+00 0.00000000E+00
17  9 0.00000000E+00 0.00000000E+00 0.00000000E+00 0.00000000E+00-8.61158919E-03
17 10 1.55670633E-02
18  1 1.88528317E-02 4.16165388E-02 0.00000000E+00 0.00000000E+00 1.60514472E-02
18  2-4.71318917E-03 0.00000000E+00 0.00000000E+00 4.71901822E-02-3.13210161E+00
18  3 0.00000000E+00 0.00000000E+00-8.25624844E-01-3.16354949E+00 0.00000000E+00
18  4 0.00000000E+00-1.41080041E+00 5.20195980E-02 5.20195980E-02 1.87373565E-02
18  5 0.00000000E+00 0.00000000E+00 0.00000000E+00 3.24210744E-02 6.31659514E-02
18  6 0.00000000E+00 0.00000000E+00-5.48018700E-02-1.27428723E-01 0.00000000E+00
18  7 0.00000000E+00-1.62295548E-02-9.95389616E-01 0.00000000E+00 0.00000000E+00
18  8-5.37033158E-01 7.15138515E+00 0.00000000E+00 0.00000000E+00-1.25868945E+00
18  9 3.21982861E-02 3.21982861E-02 1.29353476E-02 0.00000000E+00 0.00000000E+00
18 10 0.00000000E+00
19  1-2.33880597E-02-3.53344073E-02 0.00000000E+00 0.00000000E+00-1.66202057E-01
19  2 6.79542475E-03 0.00000000E+00 0.00000000E+00-5.37324470E-01 3.75780389E+00
19  3 0.00000000E+00 0.00000000E+00 3.30694064E+00 1.36332645E+00 0.00000000E+00
19  4 0.00000000E+00-3.90827278E-01-1.55275714E-02-1.55275714E-02 6.80210619E-02
19  5 0.00000000E+00 0.00000000E+00 0.00000000E+00 4.14623892E-03 1.23352239E-02
19  6 0.00000000E+00 0.00000000E+00-1.94475596E-02 9.60944245E-02 0.00000000E+00
19  7 0.00000000E+00-8.75794099E-02-1.86165564E+00 0.00000000E+00 0.00000000E+00
19  8 7.29709970E-01-3.62513548E+00 0.00000000E+00 0.00000000E+00 1.29457634E+00
19  9 4.50615795E-02 4.50615795E-02-1.18090906E-02 0.00000000E+00 0.00000000E+00
19 10 0.00000000E+00
20  1 0.00000000E+00 0.00000000E+00-8.10952869E-03-1.60834442E-01 0.00000000E+00
20  2 0.00000000E+00-4.20554443E-02-8.34076014E-01 0.00000000E+00 0.00000000E+00
20  3 9.15931221E-02 1.81654542E+00 0.00000000E+00 0.00000000E+00-3.33834491E-02
20  4-6.62086126E-01 0.00000000E+00 0.00000000E+00 0.00000000E+00 0.00000000E+00
20  5 0.00000000E+00-2.53076078E-03-5.01919302E-02 0.00000000E+00 0.00000000E+00
20  6 2.43677176E-04 4.83287472E-03 0.00000000E+00 0.00000000E+00 4.21753943E-03
20  7 8.36456536E-02 0.00000000E+00 0.00000000E+00-2.22972411E-02-4.42216112E-01
20  8 0.00000000E+00 0.00000000E+00 1.04743646E-03 2.07732482E-02 0.00000000E+00
20  9 0.00000000E+00 0.00000000E+00 0.00000000E+00 0.00000000E+00 1.01671608E-03
20 10 2.01642876E-02
21  1 0.00000000E+00 0.00000000E+00-1.60834442E-01 8.10952869E-03 0.00000000E+00
21  2 0.00000000E+00-8.34076014E-01 4.20554443E-02 0.00000000E+00 0.00000000E+00
21  3 1.81654542E+00-9.15931221E-02 0.00000000E+00 0.00000000E+00-6.62086126E-01
21  4 3.33834491E-02 0.00000000E+00 0.00000000E+00 0.00000000E+00 0.00000000E+00
21  5 0.00000000E+00-5.01919302E-02 2.53076078E-03 0.00000000E+00 0.00000000E+00
21  6 4.83287472E-03-2.43677176E-04 0.00000000E+00 0.00000000E+00 8.36456536E-02
21  7-4.21753943E-03 0.00000000E+00 0.00000000E+00-4.42216112E-01 2.22972411E-02
21  8 0.00000000E+00 0.00000000E+00 2.07732482E-02-1.04743646E-03 0.00000000E+00
21  9 0.00000000E+00 0.00000000E+00 0.00000000E+00 0.00000000E+00 2.01642876E-02
21 10-1.01671608E-03
22  1 9.10632237E-02 1.07816507E-01 0.00000000E+00 0.00000000E+00 1.69115490E-02
22  2-1.78294747E+00 0.00000000E+00 0.00000000E+00 3.06740185E-01 8.22169715E+00
22  3 0.00000000E+00 0.00000000E+00 2.15151097E+00 1.07770828E+00 0.00000000E+00
22  4 0.00000000E+00 3.55151809E-01-3.34948947E-01-3.34948947E-01-3.12834103E-01
22  5 0.00000000E+00 0.00000000E+00 0.00000000E+00-1.99341599E-03 6.17390259E-04
22  6 0.00000000E+00 0.00000000E+00-1.02040023E-02 1.13107271E-01 0.00000000E+00
22  7 0.00000000E+00-6.29764931E-02-1.71609800E+00 0.00000000E+00 0.00000000E+00
22  8 8.19734536E-01-5.63183876E+00 0.00000000E+00 0.00000000E+00 2.20924400E+00
22  9 3.90878489E-02 3.90878489E-02-8.41689657E-03 0.00000000E+00 0.00000000E+00
22 10 0.00000000E+00
23  1-1.82192134E-02-1.29348016E-02 0.00000000E+00 0.00000000E+00 2.96634907E-02
23  2 8.19935181E-01 0.00000000E+00 0.00000000E+00 9.83591370E-01 3.48605840E+00
23  3 0.00000000E+00 0.00000000E+00 1.72945453E+00 5.59032223E-01 0.00000000E+00
23  4 0.00000000E+00 2.78373814E-01 4.15698494E-02 4.15698494E-02 3.62989268E-01
23  5 0.00000000E+00 0.00000000E+00 0.00000000E+00 1.25565124E-02 2.66039014E-02
23  6 0.00000000E+00 0.00000000E+00-1.19608397E-01 1.72323297E-01 0.00000000E+00
23  7 0.00000000E+00-3.93098469E-01-2.93685788E+00 0.00000000E+00 0.00000000E+00
23  8 3.27734566E+00-2.36092651E+00 0.00000000E+00 0.00000000E+00-2.46866177E-01
23  9 3.55679282E-02 3.55679282E-02 1.00235613E-02 0.00000000E+00 0.00000000E+00
23 10 0.00000000E+00
24  1 0.00000000E+00 0.00000000E+00-1.36225850E-02-8.62273184E-02 0.00000000E+00
24  2 0.00000000E+00-7.07783721E-02-4.48008247E-01 0.00000000E+00 0.00000000E+00
24  3-1.21831437E-02-7.71161388E-02 0.00000000E+00 0.00000000E+00 7.80841631E-02
24  4 4.94252025E-01 0.00000000E+00 0.00000000E+00 0.00000000E+00 0.00000000E+00
24  5 0.00000000E+00-6.20145875E-03-3.92536750E-02 0.00000000E+00 0.00000000E+00
24  6-2.50094242E-02-1.58303080E-01 0.00000000E+00 0.00000000E+00-1.10808171E-01
24  7-7.01386471E-01 0.00000000E+00 0.00000000E+00 3.02744619E-01 1.91629325E+00
24  8 0.00000000E+00 0.00000000E+00-2.01869206E-01-1.27777847E+00 0.00000000E+00
24  9 0.00000000E+00 0.00000000E+00 0.00000000E+00 0.00000000E+00 4.29184921E-03
24 10 2.71662758E-02
25  1 0.00000000E+00 0.00000000E+00-8.62273184E-02 1.36225850E-02 0.00000000E+00
25  2 0.00000000E+00-4.48008247E-01 7.07783721E-02 0.00000000E+00 0.00000000E+00
25  3-7.71161388E-02 1.21831437E-02 0.00000000E+00 0.00000000E+00 4.94252025E-01
25  4-7.80841631E-02 0.00000000E+00 0.00000000E+00 0.00000000E+00 0.00000000E+00
25  5 0.00000000E+00-3.92536750E-02 6.20145875E-03 0.00000000E+00 0.00000000E+00
25  6-1.58303080E-01 2.50094242E-02 0.00000000E+00 0.00000000E+00-7.01386471E-01
25  7 1.10808171E-01 0.00000000E+00 0.00000000E+00 1.91629325E+00-3.02744619E-01
25  8 0.00000000E+00 0.00000000E+00-1.27777847E+00 2.01869206E-01 0.00000000E+00
25  9 0.00000000E+00 0.00000000E+00 0.00000000E+00 0.00000000E+00 2.71662758E-02
25 10-4.29184921E-03
26  1 0.00000000E+00 0.00000000E+00 0.00000000E+00 0.00000000E+00 0.00000000E+00
26  2 0.00000000E+00 0.00000000E+00 0.00000000E+00 0.00000000E+00 0.00000000E+00
26  3 0.00000000E+00 0.00000000E+00 0.00000000E+00 0.00000000E+00 0.00000000E+00
26  4 0.00000000E+00 0.00000000E+00-3.15117494E-03 3.15117494E-03 0.00000000E+00
26  5 9.83576263E-01 0.00000000E+00 0.00000000E+00 0.00000000E+00 0.00000000E+00
26  6 0.00000000E+00 0.00000000E+00 0.00000000E+00 0.00000000E+00 0.00000000E+00
26  7 0.00000000E+00 0.00000000E+00 0.00000000E+00 0.00000000E+00 0.00000000E+00
26  8 0.00000000E+00 0.00000000E+00 0.00000000E+00 0.00000000E+00 0.00000000E+00
26  9-3.16206769E-04 3.16206769E-04 0.00000000E+00 9.86976383E-02 0.00000000E+00
26 10 0.00000000E+00
27  1 0.00000000E+00 0.00000000E+00 0.00000000E+00 0.00000000E+00 0.00000000E+00
27  2 0.00000000E+00 0.00000000E+00 0.00000000E+00 0.00000000E+00 0.00000000E+00
27  3 0.00000000E+00 0.00000000E+00 0.00000000E+00 0.00000000E+00 0.00000000E+00
27  4 0.00000000E+00 0.00000000E+00 8.51802030E-01-8.51802030E-01 0.00000000E+00
27  5 3.63866339E-03 0.00000000E+00 0.00000000E+00 0.00000000E+00 0.00000000E+00
27  6 0.00000000E+00 0.00000000E+00 0.00000000E+00 0.00000000E+00 0.00000000E+00
27  7 0.00000000E+00 0.00000000E+00 0.00000000E+00 0.00000000E+00 0.00000000E+00
27  8 0.00000000E+00 0.00000000E+00 0.00000000E+00 0.00000000E+00 0.00000000E+00
27  9 8.54746621E-02-8.54746621E-02 0.00000000E+00 3.65124126E-04 0.00000000E+00
27 10 0.00000000E+00
28  1 7.54432879E-03 6.83057395E-03 0.00000000E+00 0.00000000E+00 1.30976612E-02
28  2-4.58014027E-01 0.00000000E+00 0.00000000E+00-5.48601281E-01-1.08834353E+00
28  3 0.00000000E+00 0.00000000E+00-9.60287422E-01 1.18097585E+00 0.00000000E+00
28  4 0.00000000E+00 7.31729851E-01 2.68021748E-02 2.68021748E-02-3.09361418E-01
28  5 0.00000000E+00 0.00000000E+00 0.00000000E+00 9.47771263E-02 1.24762753E-01
28  6 0.00000000E+00 0.00000000E+00-6.60268023E-02-1.54962920E+00 0.00000000E+00
28  7 0.00000000E+00-3.87774821E-01 4.85859450E+00 0.00000000E+00 0.00000000E+00
28  8-5.05521785E-01-2.57162719E+00 0.00000000E+00 0.00000000E+00-4.21699412E-02
28  9-2.25364538E-01-2.25364538E-01-2.19153691E-01 0.00000000E+00 0.00000000E+00
28 10 0.00000000E+00
29  1 0.00000000E+00 0.00000000E+00 9.57317460E-06-5.43620418E-02 0.00000000E+00
29  2 0.00000000E+00 2.18239215E-05-1.23939634E-01 0.00000000E+00 0.00000000E+00
29  3-5.88614031E-05 3.34302099E-01 0.00000000E+00 0.00000000E+00 2.30194945E-05
29  4-1.30690102E-01 0.00000000E+00 0.00000000E+00 0.00000000E+00 0.00000000E+00
29  5 0.00000000E+00-1.82424672E-04 1.03617006E+00 0.00000000E+00 0.00000000E+00
29  6 6.41417291E-06-3.64605003E-02 0.00000000E+00 0.00000000E+00 1.30067795E-05
29  7-7.39841495E-02 0.00000000E+00 0.00000000E+00 9.28353954E-05-5.27112191E-01
29  8 0.00000000E+00 0.00000000E+00-2.81161835E-05 1.59573700E-01 0.00000000E+00
29  9 0.00000000E+00 0.00000000E+00 0.00000000E+00 0.00000000E+00 2.34324680E-05
29 10-1.33095390E-01
30  1 0.00000000E+00 0.00000000E+00-5.43620418E-02-9.57317460E-06 0.00000000E+00
30  2 0.00000000E+00-1.23939634E-01-2.18239215E-05 0.00000000E+00 0.00000000E+00
30  3 3.34302099E-01 5.88614031E-05 0.00000000E+00 0.00000000E+00-1.30690102E-01
30  4-2.30194945E-05 0.00000000E+00 0.00000000E+00 0.00000000E+00 0.00000000E+00
30  5 0.00000000E+00 1.03617006E+00 1.82424672E-04 0.00000000E+00 0.00000000E+00
30  6-3.64605003E-02-6.41417291E-06 0.00000000E+00 0.00000000E+00-7.39841495E-02
30  7-1.30067795E-05 0.00000000E+00 0.00000000E+00-5.27112191E-01-9.28353954E-05
30  8 0.00000000E+00 0.00000000E+00 1.59573700E-01 2.81161835E-05 0.00000000E+00
30  9 0.00000000E+00 0.00000000E+00 0.00000000E+00 0.00000000E+00-1.33095390E-01
30 10-2.34324680E-05
31  1-5.61465192E-03-3.40119945E-02 0.00000000E+00 0.00000000E+00 3.28020982E-01
31  2-2.62127318E-01 0.00000000E+00 0.00000000E+00-6.52747805E-02 3.23427267E+00
31  3 0.00000000E+00 0.00000000E+00 1.66884235E+00 6.10741765E-01 0.00000000E+00
31  4 0.00000000E+00-4.63026061E-02-7.87786002E-01-7.87786002E-01 1.27058340E+00
31  5 0.00000000E+00 0.00000000E+00 0.00000000E+00 2.35751078E-02 3.24673254E-02
31  6 0.00000000E+00 0.00000000E+00 6.89934170E-02-4.89483291E-01 0.00000000E+00
31  7 0.00000000E+00 5.02167632E-01-1.16117213E+00 0.00000000E+00 0.00000000E+00
31  8 2.63289064E-01-2.20584710E+00 0.00000000E+00 0.00000000E+00 8.54518106E-01
31  9-9.93877701E-02-9.93877701E-02-3.24890591E-02 0.00000000E+00 0.00000000E+00
31 10 0.00000000E+00
32  1 0.00000000E+00 0.00000000E+00-1.28696259E+00 4.36144690E-02 0.00000000E+00
32  2 0.00000000E+00 1.45459853E+00-4.92955602E-02 0.00000000E+00 0.00000000E+00
32  3-8.36428919E-01 2.83461250E-02 0.00000000E+00 0.00000000E+00 1.89485495E-01
32  4-6.42156044E-03 0.00000000E+00 0.00000000E+00 0.00000000E+00 0.00000000E+00
32  5 0.00000000E+00-1.14618239E-01 3.88434994E-03 0.00000000E+00 0.00000000E+00
32  6-1.39364304E-02 4.72297940E-04 0.00000000E+00 0.00000000E+00-7.66962386E-02
32  7 2.59919299E-03 0.00000000E+00 0.00000000E+00 5.64290957E-02-1.91234951E-03
32  8 0.00000000E+00 0.00000000E+00 1.25403602E-01-4.24986237E-03 0.00000000E+00
32  9 0.00000000E+00 0.00000000E+00 0.00000000E+00 0.00000000E+00-2.15262619E-01
32 10 7.29513438E-03
33  1 0.00000000E+00 0.00000000E+00-4.36144690E-02-1.28696259E+00 0.00000000E+00
33  2 0.00000000E+00 4.92955602E-02 1.45459853E+00 0.00000000E+00 0.00000000E+00
33  3-2.83461250E-02-8.36428919E-01 0.00000000E+00 0.00000000E+00 6.42156044E-03
33  4 1.89485495E-01 0.00000000E+00 0.00000000E+00 0.00000000E+00 0.00000000E+00
33  5 0.00000000E+00-3.88434994E-03-1.14618239E-01 0.00000000E+00 0.00000000E+00
33  6-4.72297940E-04-1.39364304E-02 0.00000000E+00 0.00000000E+00-2.59919299E-03
33  7-7.66962386E-02 0.00000000E+00 0.00000000E+00 1.91234951E-03 5.64290957E-02
33  8 0.00000000E+00 0.00000000E+00 4.24986237E-03 1.25403602E-01 0.00000000E+00
33  9 0.00000000E+00 0.00000000E+00 0.00000000E+00 0.00000000E+00-7.29513438E-03
33 10-2.15262619E-01
34  1 0.00000000E+00 0.00000000E+00 0.00000000E+00 0.00000000E+00 0.00000000E+00
34  2 0.00000000E+00 0.00000000E+00 0.00000000E+00 0.00000000E+00 0.00000000E+00
34  3 0.00000000E+00 0.00000000E+00 0.00000000E+00 0.00000000E+00 0.00000000E+00
34  4 0.00000000E+00 0.00000000E+00-1.86896417E-01 1.86896417E-01 0.00000000E+00
34  5-1.59604720E-03 0.00000000E+00 0.00000000E+00 0.00000000E+00 0.00000000E+00
34  6 0.00000000E+00 0.00000000E+00 0.00000000E+00 0.00000000E+00 0.00000000E+00
34  7 0.00000000E+00 0.00000000E+00 0.00000000E+00 0.00000000E+00 0.00000000E+00
34  8 0.00000000E+00 0.00000000E+00 0.00000000E+00 0.00000000E+00 0.00000000E+00
34  9 8.67848833E-01-8.67848833E-01 0.00000000E+00 7.41120489E-03 0.00000000E+00
34 10 0.00000000E+00
35  1 0.00000000E+00 0.00000000E+00 0.00000000E+00 0.00000000E+00 0.00000000E+00
35  2 0.00000000E+00 0.00000000E+00 0.00000000E+00 0.00000000E+00 0.00000000E+00
35  3 0.00000000E+00 0.00000000E+00 0.00000000E+00 0.00000000E+00 0.00000000E+00
35  4 0.00000000E+00 0.00000000E+00 1.38221742E-03-1.38221742E-03 0.00000000E+00
35  5-2.15809394E-01 0.00000000E+00 0.00000000E+00 0.00000000E+00 0.00000000E+00
35  6 0.00000000E+00 0.00000000E+00 0.00000000E+00 0.00000000E+00 0.00000000E+00
35  7 0.00000000E+00 0.00000000E+00 0.00000000E+00 0.00000000E+00 0.00000000E+00
35  8 0.00000000E+00 0.00000000E+00 0.00000000E+00 0.00000000E+00 0.00000000E+00
35  9-6.41829171E-03 6.41829171E-03 0.00000000E+00 1.00210551E+00 0.00000000E+00
35 10 0.00000000E+00
36  1-1.35073802E-01-5.14221963E-01 0.00000000E+00 0.00000000E+00-7.94708694E-01
36  2 1.48113998E+00 0.00000000E+00 0.00000000E+00 1.05748887E+00 3.43533843E+00
36  3 0.00000000E+00 0.00000000E+00 3.20392524E-01 1.61684685E-01 0.00000000E+00
36  4 0.00000000E+00 2.10374168E-01-1.36302744E+00-1.36302744E+00-9.40783165E-01
36  5 0.00000000E+00 0.00000000E+00 0.00000000E+00 6.65821001E-03 8.05555496E-03
36  6 0.00000000E+00 0.00000000E+00-1.33769546E-03-1.22100087E-01 0.00000000E+00
36  7 0.00000000E+00 1.47057651E-01-5.41547934E-01 0.00000000E+00 0.00000000E+00
36  8 2.49799056E-01-1.74507943E+00 0.00000000E+00 0.00000000E+00 6.99129703E-01
36  9-3.87734001E-02-3.87734001E-02 4.59602663E-04 0.00000000E+00 0.00000000E+00
36 10 0.00000000E+00
37  1 8.12901646E-02 3.72717258E-01 0.00000000E+00 0.00000000E+00-1.10239716E+00
37  2-4.77146804E-01 0.00000000E+00 0.00000000E+00 2.94669526E+00-1.01996416E+00
37  3 0.00000000E+00 0.00000000E+00-3.49351773E-01-4.44370651E-01 0.00000000E+00
37  4 0.00000000E+00-4.81171796E-02 7.26363505E-01 7.26363505E-01 2.50114820E+00
37  5 0.00000000E+00 0.00000000E+00 0.00000000E+00 1.90706625E-02 8.21944551E-03
37  6 0.00000000E+00 0.00000000E+00 3.13060717E-02-5.44139628E-01 0.00000000E+00
37  7 0.00000000E+00 1.15800214E+00-2.02374315E+00 0.00000000E+00 0.00000000E+00
37  8 1.12881131E+00 1.42763248E+00 0.00000000E+00 0.00000000E+00-6.62690556E-01
37  9 5.95690089E-03 5.95690089E-03-5.33755603E-01 0.00000000E+00 0.00000000E+00
37 10 0.00000000E+00
38  1 0.00000000E+00 0.00000000E+00 4.93000498E-02-3.63809942E-01 0.00000000E+00
38  2 0.00000000E+00-1.00973292E-01 7.45132882E-01 0.00000000E+00 0.00000000E+00
38  3 1.95234697E-02-1.44073536E-01 0.00000000E+00 0.00000000E+00 3.96364165E-03
38  4-2.92497060E-02 0.00000000E+00 0.00000000E+00 0.00000000E+00 0.00000000E+00
38  5 0.00000000E+00-8.39006478E-02 6.19145222E-01 0.00000000E+00 0.00000000E+00
38  6 5.68611656E-03-4.19607257E-02 0.00000000E+00 0.00000000E+00-1.15599074E-03
38  7 8.53061920E-03 0.00000000E+00 0.00000000E+00 6.80730368E-02-5.02345274E-01
38  8 0.00000000E+00 0.00000000E+00-2.85360552E-02 2.10581940E-01 0.00000000E+00
38  9 0.00000000E+00 0.00000000E+00 0.00000000E+00 0.00000000E+00-1.47498671E-01
38 10 1.08846713E+00
39  1 0.00000000E+00 0.00000000E+00-3.63809942E-01-4.93000498E-02 0.00000000E+00
39  2 0.00000000E+00 7.45132882E-01 1.00973292E-01 0.00000000E+00 0.00000000E+00
39  3-1.44073536E-01-1.95234697E-02 0.00000000E+00 0.00000000E+00-2.92497060E-02
39  4-3.96364165E-03 0.00000000E+00 0.00000000E+00 0.00000000E+00 0.00000000E+00