 $CONTRL SCFTYP=MCSCF NOSYM=1 $END
 $SYSTEM MWORDS=800 $END
 $ORMAS NSPACE=2 MSTART(1)=4,5 MINE(1)=1,7 MAXE(1)=1,7 $END
 $MCSCF CISTEP=ORMAS FULLNR=.T. MAXIT=200 MOFRZ(1)=4 $END
 $DET NCORE=3 NACT=7 NELS=8 NSTATE=4 ITERMX=2000 WSTATE(1)=1,1 $END
 $GUESS GUESS=MOREAD NORB=46 $END
